# 95234
param n := 25;
param s := 1;
set E :=  (0,1) (0,4) (0,5) (0,7) (0,23) (1,19) (2,7) (2,12) (2,13) (2,18) (3,10) (3,22) (4,16) (4,19) (4,20) (5,13) (6,11) (6,19) (7,19) (8,21) (9,14) (10,16) (11,17) (12,14) (12,17) (12,21) (13,22) (13,24) (14,16) (15,22) (15,24) (16,19) (16,20) (22,24);
